(declare-fun pow (Real Real) Real)
(declare-const |K:75| Int)
(declare-const havoc Int)
(declare-const |p':65| Int)
(declare-const |d':64| Int)
(assert (and (or (not (and (<= (- |K:75|) 0) (<= |K:75| 0)))
                   (= (+ (- (pow 2 |K:75|)) |d':64|) 0))
               (or (not (<= (+ (- |K:75|) 1) 0))
                     (= (+ (- (pow 2 |K:75|)) |d':64|) 0))
               (or (not (and (<= (- |K:75|) 0) (<= |K:75| 0)))
                     (= (+ |p':65| (- (pow 2 |K:75|))) 0))
               (or (not (<= (+ (- |K:75|) 1) 0))
                     (= (+ |p':65| (- (pow 2 |K:75|))) 0))
               (or (not (<= (- |K:75|) 0))
                     (<= (+ |p':65| (- (* havoc |K:75|)) -1) 0))
               (or (not (<= (- |K:75|) 0)) (<= (+ (- |p':65|) |K:75| 1) 0))
               (or (and (= |K:75| 0) (= (+ (- |p':65|) 1) 0)
                          (= (+ (- |d':64|) 1) 0))
                     (and (<= (+ (- |K:75|) 1) 0) (<= (+ (- havoc) 1) 0)
                            (= (+ (- |p':65|) |d':64|) 0)
                            (<= (+ (* -2 havoc) |p':65|) 0)
                            (<= (+ (- |p':65|) 2) 0))) (<= (- |K:75|) 0)
               (< (- |p':65|) 0) (< (- |d':64|) 0)
               (= (+ |p':65| (- |d':64|)) 0)
               (not (= (+ (- |p':65|) |d':64|) 0))))
(check-sat)
